solution status: optimal solution found
objective value:                            51644.998
y#1                                                 1 	(obj:5700)
y#2                                                 1 	(obj:5700)
y#3                                                 1 	(obj:5700)
y#4                                                 1 	(obj:5700)
y#5                                                 1 	(obj:5700)
y#7                                                 1 	(obj:5700)
y#8                                                 1 	(obj:5700)
y#9                                                 1 	(obj:5700)
y#10                                                1 	(obj:5700)
x#1#2                                               1 	(obj:3.009)
x#2#5                                               1 	(obj:10.302)
x#3#10                                              1 	(obj:10.2)
x#4#10                                              1 	(obj:5.576)
x#5#7                                               1 	(obj:6.375)
x#6#7                                               1 	(obj:2.941)
x#7#7                                               1 	(obj:6.137)
x#8#5                                               1 	(obj:6.086)
x#9#5                                               1 	(obj:6.494)
x#10#4                                              1 	(obj:5.491)
x#11#3                                              1 	(obj:6.205)
x#12#9                                              1 	(obj:12.053)
x#13#9                                              1 	(obj:4.828)
x#14#2                                              1 	(obj:2.516)
x#15#2                                              1 	(obj:2.669)
x#16#2                                              1 	(obj:1.904)
x#17#4                                              1 	(obj:7.718)
x#18#4                                              1 	(obj:3.859)
x#19#4                                              1 	(obj:1.19)
x#20#3                                              1 	(obj:2.499)
x#21#3                                              1 	(obj:3.604)
x#22#9                                              1 	(obj:6.596)
x#23#9                                              1 	(obj:5.576)
x#24#9                                              1 	(obj:9.877)
x#25#8                                              1 	(obj:9.333)
x#26#8                                              1 	(obj:6.052)
x#27#8                                              1 	(obj:2.057)
x#28#8                                              1 	(obj:14.076)
x#29#4                                              1 	(obj:8.891)
x#30#1                                              1 	(obj:3.621)
x#31#4                                              1 	(obj:3.128)
x#32#3                                              1 	(obj:6.732)
x#33#3                                              1 	(obj:3.162)
x#34#5                                              1 	(obj:4.947)
x#35#5                                              1 	(obj:5.338)
x#36#10                                             1 	(obj:4.981)
x#37#10                                             1 	(obj:6.137)
x#38#8                                              1 	(obj:3.944)
x#39#9                                              1 	(obj:4.131)
x#40#5                                              1 	(obj:3.927)
x#41#5                                              1 	(obj:1.598)
x#42#2                              0.999999999999999 	(obj:1.462)
x#43#2                                              1 	(obj:2.465)
x#44#2                                              1 	(obj:3.536)
x#45#7                                              1 	(obj:16.626)
x#46#1                                              1 	(obj:2.159)
x#47#1                                              1 	(obj:2.55)
x#48#1                                              1 	(obj:6.052)
x#49#1                                              1 	(obj:5.304)
x#50#10                                             1 	(obj:16.609)
x#51#7                                              1 	(obj:22.525)
x#52#10                                             1 	(obj:9.928)
x#53#10                                             1 	(obj:10.285)
x#54#1                                              1 	(obj:2.261)
x#55#7                                              1 	(obj:12.869)
x#56#7                                              1 	(obj:4.607)
